(set-logic QF_FF)
(define-sort FF0 () (_ FiniteField 21888242871839275222246405745257275088548364400416034343698204186575808495617))
(declare-fun s_0 () FF0)
(declare-fun s_1 () FF0)
(declare-fun s_2 () FF0)
(declare-fun s_3 () FF0)
(declare-fun s_4 () FF0)
(declare-fun s_5 () FF0)
(declare-fun s_6 () FF0)
(declare-fun s_7 () FF0)
(declare-fun s_8 () FF0)
(declare-fun s_9 () FF0)
(declare-fun s_10 () FF0)
(declare-fun s_11 () FF0)
(declare-fun s_12 () FF0)
(declare-fun s_13 () FF0)
(declare-fun s_14 () FF0)
(declare-fun s_15 () FF0)
(declare-fun s_16 () FF0)
(declare-fun s_17 () FF0)
(declare-fun s_18 () FF0)
(declare-fun s_19 () FF0)
(declare-fun s_20 () FF0)
(declare-fun s_21 () FF0)
(declare-fun s_22 () FF0)
(declare-fun s_23 () FF0)
(declare-fun s_24 () FF0)
(declare-fun s_25 () FF0)
(declare-fun s_26 () FF0)
(declare-fun s_27 () FF0)
(declare-fun s_28 () FF0)
(declare-fun s_29 () FF0)
(declare-fun s_30 () FF0)
(declare-fun s_31 () FF0)
(declare-fun s_32 () FF0)
(declare-fun s_33 () FF0)
(declare-fun s_34 () FF0)
(declare-fun s_35 () FF0)
(declare-fun s_36 () FF0)
(declare-fun s_37 () FF0)
(declare-fun s_38 () FF0)
(declare-fun s_39 () FF0)
(declare-fun s_40 () FF0)
(declare-fun s_41 () FF0)
(declare-fun s_42 () FF0)
(declare-fun s_43 () FF0)
(declare-fun s_44 () FF0)
(declare-fun s_45 () FF0)
(declare-fun s_46 () FF0)
(declare-fun s_47 () FF0)
(declare-fun s_48 () FF0)
(declare-fun s_49 () FF0)
(declare-fun s_50 () FF0)
(declare-fun s_51 () FF0)
(declare-fun s_52 () FF0)
(declare-fun s_53 () FF0)
(declare-fun s_54 () FF0)
(declare-fun s_55 () FF0)
(declare-fun s_56 () FF0)
(declare-fun s_57 () FF0)
(declare-fun s_58 () FF0)
(declare-fun s_59 () FF0)
(declare-fun s_60 () FF0)
(declare-fun s_61 () FF0)
(declare-fun s_62 () FF0)
(declare-fun s_63 () FF0)
(declare-fun s_64 () FF0)
(declare-fun s_65 () FF0)
(declare-fun s_66 () FF0)
(declare-fun s_67 () FF0)
(declare-fun v_0 () FF0)
(declare-fun v_1 () FF0)
(declare-fun v_2 () FF0)
(declare-fun v_3 () FF0)
(declare-fun v_4 () FF0)
(declare-fun v_5 () FF0)
(declare-fun v_6 () FF0)
(declare-fun v_7 () FF0)
(declare-fun v_8 () FF0)
(declare-fun v_9 () FF0)
(declare-fun v_10 () FF0)
(declare-fun v_11 () FF0)
(declare-fun v_12 () FF0)
(declare-fun v_13 () FF0)
(declare-fun v_14 () FF0)
(declare-fun v_15 () FF0)
(declare-fun v_16 () FF0)
(declare-fun v_17 () FF0)
(declare-fun v_18 () FF0)
(declare-fun v_19 () FF0)
(assert (= (as ff0 FF0) (ff.mul (ff.add (ff.mul s_2 (as ff21888242871839275222246405745257275088548364400416034343698204186575808495616 FF0)) (as ff1 FF0) ) (ff.add (as ff2 FF0) (ff.mul s_2 (as ff21888242871839275222246405745257275088548364400416034343698204186575808495616 FF0)) ) s_2 )))

(assert (= (as ff0 FF0) (ff.mul (ff.add (ff.mul s_3 (as ff21888242871839275222246405745257275088548364400416034343698204186575808495616 FF0)) (as ff1 FF0) ) (ff.add (as ff2 FF0) (ff.mul s_3 (as ff21888242871839275222246405745257275088548364400416034343698204186575808495616 FF0)) ) s_3 )))

(assert (= (ff.add (ff.mul s_21 (as ff21888242871839275222246405745257275088548364400416034343698204186575808495616 FF0)) s_2 ) (as ff0 FF0)))
(assert (= (ff.add (ff.mul s_29 (as ff21888242871839275222246405745257275088548364400416034343698204186575808495616 FF0)) s_2 ) (as ff0 FF0)))
(assert (= (ff.add s_2 (ff.mul s_37 (as ff21888242871839275222246405745257275088548364400416034343698204186575808495616 FF0)) ) (as ff0 FF0)))
(assert (= (ff.add (ff.mul s_45 (as ff21888242871839275222246405745257275088548364400416034343698204186575808495616 FF0)) s_3 ) (as ff0 FF0)))
(assert (= (ff.add s_3 (ff.mul s_53 (as ff21888242871839275222246405745257275088548364400416034343698204186575808495616 FF0)) ) (as ff0 FF0)))
(assert (= (ff.add (ff.mul s_61 (as ff21888242871839275222246405745257275088548364400416034343698204186575808495616 FF0)) s_3 ) (as ff0 FF0)))
(assert (= (ff.mul s_11 (as ff21888242871839275222246405745257275088548364400416034343698204186575808495616 FF0))  (ff.mul (ff.mul s_20 (as ff21888242871839275222246405745257275088548364400416034343698204186575808495616 FF0))  s_44 )))
(assert (= (ff.mul s_12 (as ff21888242871839275222246405745257275088548364400416034343698204186575808495616 FF0))  (ff.mul (ff.mul s_28 (as ff21888242871839275222246405745257275088548364400416034343698204186575808495616 FF0))  s_52 )))
(assert (= (ff.mul s_13 (as ff21888242871839275222246405745257275088548364400416034343698204186575808495616 FF0))  (ff.mul (ff.mul s_36 (as ff21888242871839275222246405745257275088548364400416034343698204186575808495616 FF0))  s_60 )))
(assert (= (ff.add s_13 (ff.mul s_4 (as ff21888242871839275222246405745257275088548364400416034343698204186575808495616 FF0)) s_11 s_12 ) (as ff0 FF0)))
(assert (= (ff.add (ff.mul s_4 (as ff21888242871839275222246405745257275088548364400416034343698204186575808495616 FF0)) (ff.mul s_5 (as ff21888242871839275222246405745257275088548364400416034343698204186575808495616 FF0)) (as ff1 FF0) ) (as ff0 FF0)))
(assert (= (ff.mul s_14 (as ff21888242871839275222246405745257275088548364400416034343698204186575808495616 FF0))  (ff.mul (ff.mul s_20 (as ff21888242871839275222246405745257275088548364400416034343698204186575808495616 FF0))  s_60 )))
(assert (= (ff.mul s_15 (as ff21888242871839275222246405745257275088548364400416034343698204186575808495616 FF0))  (ff.mul (ff.mul s_28 (as ff21888242871839275222246405745257275088548364400416034343698204186575808495616 FF0))  s_44 )))
(assert (= (ff.mul s_16 (as ff21888242871839275222246405745257275088548364400416034343698204186575808495616 FF0))  (ff.mul (ff.mul s_36 (as ff21888242871839275222246405745257275088548364400416034343698204186575808495616 FF0))  s_52 )))
(assert (= (ff.add s_15 (ff.mul s_7 (as ff21888242871839275222246405745257275088548364400416034343698204186575808495616 FF0)) s_14 s_16 ) (as ff0 FF0)))
(assert (= (ff.mul s_17 (as ff21888242871839275222246405745257275088548364400416034343698204186575808495616 FF0))  (ff.mul (ff.mul s_20 (as ff21888242871839275222246405745257275088548364400416034343698204186575808495616 FF0))  s_52 )))
(assert (= (ff.mul s_18 (as ff21888242871839275222246405745257275088548364400416034343698204186575808495616 FF0))  (ff.mul (ff.mul s_28 (as ff21888242871839275222246405745257275088548364400416034343698204186575808495616 FF0))  s_60 )))
(assert (= (ff.mul s_19 (as ff21888242871839275222246405745257275088548364400416034343698204186575808495616 FF0))  (ff.mul (ff.mul s_36 (as ff21888242871839275222246405745257275088548364400416034343698204186575808495616 FF0))  s_44 )))
(assert (= (ff.add s_18 (ff.mul s_8 (as ff21888242871839275222246405745257275088548364400416034343698204186575808495616 FF0)) s_19 s_17 ) (as ff0 FF0)))
(assert (= (ff.add (ff.mul s_6 (as ff21888242871839275222246405745257275088548364400416034343698204186575808495616 FF0)) s_8 ) (as ff0 FF0)))
(assert (= (ff.add (ff.mul s_5 (as ff21888242871839275222246405745257275088548364400416034343698204186575808495615 FF0)) (ff.mul s_1 (as ff21888242871839275222246405745257275088548364400416034343698204186575808495616 FF0)) (as ff2 FF0) ) (ff.mul (ff.mul s_6 (as ff21888242871839275222246405745257275088548364400416034343698204186575808495616 FF0))  s_5 )))
(assert (= (ff.add (ff.mul s_23 (as ff21888242871839275222246405745257275088548364400416034343698204186575808495616 FF0)) s_21 ) (as ff0 FF0)))
(assert (= (ff.mul s_24 (as ff21888242871839275222246405745257275088548364400416034343698204186575808495616 FF0))  (as ff0 FF0)))
(assert (= (ff.add s_22 (ff.mul s_20 (as ff21888242871839275222246405745257275088548364400416034343698204186575808495616 FF0)) ) (as ff0 FF0)))
(assert (= (ff.add s_24 (ff.mul s_26 (as ff21888242871839275222246405745257275088548364400416034343698204186575808495616 FF0)) (ff.mul s_23 (as ff21888242871839275222246405745257275088548364400416034343698204186575808495616 FF0)) ) (as ff0 FF0)))
(assert (= (ff.add (ff.mul s_22 (as ff21888242871839275222246405745257275088548364400416034343698204186575808495616 FF0)) s_25 ) (as ff0 FF0)))
(assert (= (ff.add (as ff1 FF0) (ff.mul s_25 (as ff21888242871839275222246405745257275088548364400416034343698204186575808495616 FF0)) ) (ff.mul s_26  s_27 )))
(assert (= (as ff0 FF0) (ff.mul s_26  s_25 )))
(assert (= (ff.add s_29 (ff.mul s_31 (as ff21888242871839275222246405745257275088548364400416034343698204186575808495616 FF0)) ) (as ff0 FF0)))
(assert (= (ff.add (as ff1 FF0) (ff.mul s_32 (as ff21888242871839275222246405745257275088548364400416034343698204186575808495616 FF0)) ) (as ff0 FF0)))
(assert (= (ff.add s_30 (ff.mul s_28 (as ff21888242871839275222246405745257275088548364400416034343698204186575808495616 FF0)) ) (as ff0 FF0)))
(assert (= (ff.add s_32 (ff.mul s_31 (as ff21888242871839275222246405745257275088548364400416034343698204186575808495616 FF0)) (ff.mul s_34 (as ff21888242871839275222246405745257275088548364400416034343698204186575808495616 FF0)) ) (as ff0 FF0)))
(assert (= (ff.add (ff.mul s_30 (as ff21888242871839275222246405745257275088548364400416034343698204186575808495616 FF0)) s_33 ) (as ff0 FF0)))
(assert (= (ff.add (as ff1 FF0) (ff.mul s_33 (as ff21888242871839275222246405745257275088548364400416034343698204186575808495616 FF0)) ) (ff.mul s_34  s_35 )))
(assert (= (as ff0 FF0) (ff.mul s_34  s_33 )))
(assert (= (ff.add (ff.mul s_39 (as ff21888242871839275222246405745257275088548364400416034343698204186575808495616 FF0)) s_37 ) (as ff0 FF0)))
(assert (= (ff.add (ff.mul s_40 (as ff21888242871839275222246405745257275088548364400416034343698204186575808495616 FF0)) (as ff2 FF0) ) (as ff0 FF0)))
(assert (= (ff.add s_38 (ff.mul s_36 (as ff21888242871839275222246405745257275088548364400416034343698204186575808495616 FF0)) ) (as ff0 FF0)))
(assert (= (ff.add s_40 (ff.mul s_42 (as ff21888242871839275222246405745257275088548364400416034343698204186575808495616 FF0)) (ff.mul s_39 (as ff21888242871839275222246405745257275088548364400416034343698204186575808495616 FF0)) ) (as ff0 FF0)))
(assert (= (ff.add s_41 (ff.mul s_38 (as ff21888242871839275222246405745257275088548364400416034343698204186575808495616 FF0)) ) (as ff0 FF0)))
(assert (= (ff.add (as ff1 FF0) (ff.mul s_41 (as ff21888242871839275222246405745257275088548364400416034343698204186575808495616 FF0)) ) (ff.mul s_42  s_43 )))
(assert (= (as ff0 FF0) (ff.mul s_42  s_41 )))
(assert (= (ff.add s_45 (ff.mul s_47 (as ff21888242871839275222246405745257275088548364400416034343698204186575808495616 FF0)) ) (as ff0 FF0)))
(assert (= (ff.mul s_48 (as ff21888242871839275222246405745257275088548364400416034343698204186575808495616 FF0))  (as ff0 FF0)))
(assert (= (ff.add (ff.mul s_44 (as ff21888242871839275222246405745257275088548364400416034343698204186575808495616 FF0)) s_46 ) (as ff0 FF0)))
(assert (= (ff.add s_48 (ff.mul s_47 (as ff21888242871839275222246405745257275088548364400416034343698204186575808495616 FF0)) (ff.mul s_50 (as ff21888242871839275222246405745257275088548364400416034343698204186575808495616 FF0)) ) (as ff0 FF0)))
(assert (= (ff.add (ff.mul s_46 (as ff21888242871839275222246405745257275088548364400416034343698204186575808495616 FF0)) s_49 ) (as ff0 FF0)))
(assert (= (ff.add (ff.mul s_49 (as ff21888242871839275222246405745257275088548364400416034343698204186575808495616 FF0)) (as ff1 FF0) ) (ff.mul s_50  s_51 )))
(assert (= (as ff0 FF0) (ff.mul s_50  s_49 )))
(assert (= (ff.add s_53 (ff.mul s_55 (as ff21888242871839275222246405745257275088548364400416034343698204186575808495616 FF0)) ) (as ff0 FF0)))
(assert (= (ff.add (as ff1 FF0) (ff.mul s_56 (as ff21888242871839275222246405745257275088548364400416034343698204186575808495616 FF0)) ) (as ff0 FF0)))
(assert (= (ff.add s_54 (ff.mul s_52 (as ff21888242871839275222246405745257275088548364400416034343698204186575808495616 FF0)) ) (as ff0 FF0)))
(assert (= (ff.add s_56 (ff.mul s_55 (as ff21888242871839275222246405745257275088548364400416034343698204186575808495616 FF0)) (ff.mul s_58 (as ff21888242871839275222246405745257275088548364400416034343698204186575808495616 FF0)) ) (as ff0 FF0)))
(assert (= (ff.add (ff.mul s_54 (as ff21888242871839275222246405745257275088548364400416034343698204186575808495616 FF0)) s_57 ) (as ff0 FF0)))
(assert (= (ff.add (as ff1 FF0) (ff.mul s_57 (as ff21888242871839275222246405745257275088548364400416034343698204186575808495616 FF0)) ) (ff.mul s_58  s_59 )))
(assert (= (as ff0 FF0) (ff.mul s_58  s_57 )))
(assert (= (ff.add s_61 (ff.mul s_63 (as ff21888242871839275222246405745257275088548364400416034343698204186575808495616 FF0)) ) (as ff0 FF0)))
(assert (= (ff.add (ff.mul s_64 (as ff21888242871839275222246405745257275088548364400416034343698204186575808495616 FF0)) (as ff2 FF0) ) (as ff0 FF0)))
(assert (= (ff.add s_62 (ff.mul s_60 (as ff21888242871839275222246405745257275088548364400416034343698204186575808495616 FF0)) ) (as ff0 FF0)))
(assert (= (ff.add (ff.mul s_66 (as ff21888242871839275222246405745257275088548364400416034343698204186575808495616 FF0)) s_64 (ff.mul s_63 (as ff21888242871839275222246405745257275088548364400416034343698204186575808495616 FF0)) ) (as ff0 FF0)))
(assert (= (ff.add s_65 (ff.mul s_62 (as ff21888242871839275222246405745257275088548364400416034343698204186575808495616 FF0)) ) (as ff0 FF0)))
(assert (= (ff.add (as ff1 FF0) (ff.mul s_65 (as ff21888242871839275222246405745257275088548364400416034343698204186575808495616 FF0)) ) (ff.mul s_66  s_67 )))
(assert (= (as ff0 FF0) (ff.mul s_66  s_65 )))
(assert (and (and (= v_2 (ite (= v_1 v_0) 1 0)) (ite (= v_2 1) (and true (= v_18 2)) (and (and (= v_3 (ite (= 0 v_0) 1 0)) (and (= v_4 (ite (= 2 v_1) 1 0)) (and (and (= v_5 (ite (or (= v_3 0) (= v_4 0)) 0 1)) (or (= v_5 0) (= v_5 1))) (and (ite (= v_5 1) (and (and true (= v_16 0)) (= v_17 0)) (and (and (and (= v_6 (ite (= 1 v_0) 1 0)) (and (= v_7 (ite (= 0 v_1) 1 0)) (and (and (= v_8 (ite (or (= v_6 0) (= v_7 0)) 0 1)) (or (= v_8 0) (= v_8 1))) (and (ite (= v_8 1) (and (and true (= v_14 0)) (= v_15 0)) (and (and (and (= v_9 (ite (= 2 v_0) 1 0)) (and (= v_10 (ite (= 1 v_1) 1 0)) (and (and (= v_11 (ite (or (= v_9 0) (= v_10 0)) 0 1)) (or (= v_11 0) (= v_11 1))) (and (ite (= v_11 1) (and (and true (= v_12 0)) (= v_13 0)) (and (and true (= v_12 1)) (= v_13 1))) true)))) (= v_14 v_12)) (= v_15 v_13))) true)))) (= v_16 v_14)) (= v_17 v_15))) true)))) (= v_18 v_17)))) (= v_19 v_18)))
(assert (and  (= s_2 v_0)  (= s_3 v_1) ))
(assert (not (= s_1 v_19)))
(check-sat)
